; benchmark generated from python API
(set-info :status unknown)
(declare-datatypes ((RealState 0)) (((RMk1 (rval1 Real)) (RMk2 (rval2 Real)))))
 (assert
 (forall ((|v11:0| Real) )(exists ((|v10:1_st| RealState) (val!2346 Real) )(forall ((|v9:2| Real) )(exists ((|v8:3_st| RealState) (val!2347 Real) )(forall ((|v7:4| Real) )(exists ((|v6:5_st| RealState) (val!2348 Real) )(forall ((|v5:6| Real) )(exists ((|v4:7_st| RealState) (val!2349 Real) )(forall ((|v3:8| Real) )(exists ((|v2:9_st| RealState) (val!2350 Real) )(forall ((|v1:10| Real) )(exists ((|v0:11_st| RealState) (val!2351 Real) )(let ((?x1187 (- 13.0)))
 (let ((?x116 (- 5.0)))
 (let ((?x1519 (* ?x116 |v1:10|)))
 (let ((?x1152 (+ (+ (+ (* (- 8.0) (rval2 |v8:3_st|)) (* (- 15.0) |v1:10|)) ?x1519) (* (- 9.0) |v5:6|))))
 (let ((?x665 (- 8.0)))
 (let ((?x691 (* ?x665 |v5:6|)))
 (let ((?x884 (rval2 |v2:9_st|)))
 (let ((?x2838 (* 10.0 ?x884)))
 (let ((?x3036 (+ (+ (+ (* (- 15.0) (rval2 |v6:5_st|)) (* 7.0 (rval2 |v0:11_st|))) ?x2838) ?x691)))
 (let ((?x2957 (* 19.0 |v5:6|)))
 (let ((?x294 (+ (+ (* (- 6.0) (rval2 |v6:5_st|)) (* 12.0 (rval2 |v6:5_st|))) (* (- 17.0) |v3:8|))))
 (let ((?x2415 (+ (+ (+ (* 17.0 |v1:10|) (* (- 6.0) |v11:0|)) (* 3.0 (rval2 |v6:5_st|))) (* 0.0 (rval2 |v0:11_st|)))))
 (let (($x479 (and (or (<= ?x2415 15.0) (<= (+ ?x294 ?x2957) 9.0)) (or (<= ?x3036 14.0) (<= ?x1152 ?x1187)))))
 (let ((?x2206 (- 20.0)))
 (let ((?x840 (+ (+ (* 2.0 (rval2 |v6:5_st|)) (* (- 12.0) (rval2 |v0:11_st|))) (* ?x116 (rval2 |v10:1_st|)))))
 (let ((?x866 (- 6.0)))
 (let ((?x1845 (+ (+ (+ (* ?x866 (rval2 |v10:1_st|)) (* 20.0 ?x884)) (* (- 1.0) |v3:8|)) (* ?x1187 |v3:8|))))
 (let ((?x2009 (- 1.0)))
 (let ((?x1029 (* ?x2009 |v3:8|)))
 (let ((?x66 (+ (+ (+ (* (- 12.0) (rval2 |v10:1_st|)) (* 11.0 |v11:0|)) (* 17.0 |v1:10|)) ?x1029)))
 (let ((?x3072 (+ (+ (* (- 12.0) (rval2 |v8:3_st|)) (* 3.0 ?x884)) (* (- 14.0) (rval2 |v0:11_st|)))))
 (let (($x1810 (or (and (<= (+ ?x3072 (* 16.0 (rval2 |v0:11_st|))) 19.0) (<= ?x66 3.0)) (and (<= ?x1845 ?x866) (<= (+ ?x840 (* 12.0 |v1:10|)) ?x2206)))))
 (let ((?x2777 (- 9.0)))
 (let ((?x2799 (+ (+ (* (- 7.0) |v3:8|) (* ?x116 (rval2 |v0:11_st|))) (* 0.0 (rval2 |v6:5_st|)))))
 (let ((?x1129 (- 4.0)))
 (let ((?x93 (rval2 |v10:1_st|)))
 (let ((?x1433 (* 19.0 ?x93)))
 (let ((?x1201 (+ (+ (+ (* (- 11.0) (rval2 |v0:11_st|)) (* (- 2.0) |v7:4|)) ?x1433) (* (- 10.0) (rval2 |v8:3_st|)))))
 (let ((?x1217 (- 14.0)))
 (let ((?x704 (* ?x1217 |v1:10|)))
 (let ((?x392 (+ (+ (+ (* 7.0 (rval2 |v8:3_st|)) ?x884) (* 5.0 (rval2 |v0:11_st|))) ?x704)))
 (let ((?x375 (- 18.0)))
 (let ((?x1765 (* 15.0 ?x93)))
 (let ((?x295 (rval2 |v0:11_st|)))
 (let ((?x871 (- 12.0)))
 (let ((?x1962 (* ?x871 ?x295)))
 (let (($x2390 (<= (+ (+ (+ (* 7.0 ?x884) (* ?x116 (rval2 |v4:7_st|))) ?x1962) ?x1765) ?x375)))
 (let (($x33 (and (or $x2390 (<= ?x392 6.0)) (and (<= ?x1201 ?x1129) (<= (+ ?x2799 (* 7.0 (rval2 |v4:7_st|))) ?x2777)))))
 (let ((?x2537 (- 2.0)))
 (let ((?x780 (* 6.0 ?x884)))
 (let ((?x764 (+ (+ (+ (* (- 15.0) ?x884) (* 20.0 ?x93)) (* 18.0 |v1:10|)) ?x780)))
 (let ((?x2752 (+ (+ (+ (* 3.0 |v1:10|) (* 10.0 ?x295)) (* (- 19.0) (rval2 |v4:7_st|))) (* ?x2206 (rval2 |v8:3_st|)))))
 (let ((?x543 (- 15.0)))
 (let ((?x3116 (rval2 |v6:5_st|)))
 (let ((?x660 (- 10.0)))
 (let ((?x2219 (* ?x660 ?x3116)))
 (let (($x321 (<= (+ (+ (+ (* 12.0 ?x3116) (* 7.0 ?x295)) ?x2219) (* ?x866 |v5:6|)) ?x543)))
 (let ((?x1996 (+ (+ (+ (* 2.0 |v11:0|) (* 7.0 ?x3116)) (* ?x2009 |v11:0|)) (* ?x2777 ?x884))))
 (let (($x217 (and (and (<= ?x1996 4.0) $x321) (and (<= ?x2752 ?x2777) (<= ?x764 ?x2537)))))
 (let ((?x1160 (+ (+ (+ (* 2.0 ?x93) (* ?x375 |v11:0|)) (* (- 11.0) |v9:2|)) (* 17.0 |v9:2|))))
 (let ((?x1911 (+ (+ (+ (* ?x543 (rval2 |v8:3_st|)) (* ?x543 |v1:10|)) (* 9.0 |v11:0|)) (* ?x665 |v7:4|))))
 (let ((?x2927 (- 19.0)))
 (let ((?x1814 (* ?x2927 |v7:4|)))
 (let ((?x676 (+ (+ (+ (* 8.0 ?x3116) (* ?x116 (rval2 |v4:7_st|))) (* ?x1187 (rval2 |v8:3_st|))) ?x1814)))
 (let (($x3099 (<= (+ (+ (+ ?x780 (* ?x1187 |v9:2|)) (* 5.0 |v11:0|)) (* ?x660 |v1:10|)) ?x660)))
 (let (($x771 (or (<= (+ (+ (+ ?x1519 (* ?x1187 |v1:10|)) (* 13.0 ?x295)) ?x1814) ?x1129) $x3099)))
 (let ((?x48 (* ?x2009 |v11:0|)))
 (let ((?x477 (+ (+ (+ (* (- 11.0) ?x884) (* (- 11.0) (rval2 |v8:3_st|))) ?x48) (* (- 17.0) |v11:0|))))
 (let (($x510 (<= (+ (+ (+ (* 17.0 |v11:0|) ?x691) (* 10.0 ?x295)) (* 19.0 ?x295)) 3.0)))
 (let (($x681 (and (or (and $x510 (<= ?x477 0.0)) $x771) (and (and (<= ?x676 2.0) (<= ?x1911 9.0)) (<= ?x1160 12.0)))))
 (let ((?x3065 (+ (+ (* (- 7.0) ?x884) (* ?x2777 ?x3116)) (* (- 3.0) (rval2 |v4:7_st|)))))
 (let ((?x538 (* 9.0 ?x295)))
 (let (($x1256 (<= (+ (+ (+ (* 16.0 |v7:4|) (* ?x1217 ?x884)) (* 18.0 |v11:0|)) ?x538) ?x1129)))
 (let ((?x2025 (+ (+ (+ (* 6.0 (rval2 |v4:7_st|)) (* ?x2927 ?x884)) (* 8.0 |v5:6|)) (* ?x2927 ?x93))))
 (let (($x2970 (<= (+ (+ (+ ?x2219 (* 6.0 |v9:2|)) ?x3116) (* (- 11.0) (rval2 |v8:3_st|))) 18.0)))
 (let (($x2298 (or (and $x2970 (<= ?x2025 0.0)) (and $x1256 (<= (+ ?x3065 (* ?x2206 ?x93)) 9.0)))))
 (let ((?x2848 (- 17.0)))
 (let ((?x2050 (* 2.0 ?x93)))
 (let (($x2871 (<= (+ (+ (+ (* (- 7.0) |v9:2|) (* ?x660 ?x93)) (* 5.0 |v1:10|)) ?x2050) ?x2848)))
 (let ((?x1021 (* ?x2009 ?x3116)))
 (let ((?x2271 (+ (+ (+ (* ?x660 (rval2 |v4:7_st|)) (* ?x2537 ?x93)) (* 17.0 ?x3116)) ?x1021)))
 (let ((?x2159 (- 3.0)))
 (let (($x2972 (<= (+ (+ (+ ?x884 (* (- 7.0) |v5:6|)) (* (- 16.0) |v7:4|)) |v9:2|) ?x2159)))
 (let ((?x2704 (- 16.0)))
 (let ((?x1978 (+ (+ (+ (* ?x2537 |v5:6|) (* 16.0 ?x93)) (* 7.0 |v3:8|)) (* (- 11.0) |v11:0|))))
 (let (($x343 (and (and (or (<= ?x1978 ?x2704) $x2972) (or (<= ?x2271 8.0) $x2871)) $x2298)))
 (let ((?x2058 (* 10.0 ?x93)))
 (let ((?x2067 (+ (+ (+ (* 15.0 |v9:2|) (* 20.0 |v3:8|)) (* 17.0 (rval2 |v8:3_st|))) ?x2058)))
 (let ((?x108 (+ (+ (+ (* ?x543 (rval2 |v4:7_st|)) (* ?x543 |v3:8|)) (* (- 11.0) ?x93)) (* 3.0 ?x93))))
 (let ((?x99 (* 9.0 |v1:10|)))
 (let ((?x606 (+ (+ (+ (* 7.0 ?x884) (* 5.0 |v9:2|)) (* 16.0 (rval2 |v8:3_st|))) ?x99)))
 (let ((?x1417 (+ (+ (+ (* 5.0 |v3:8|) (* ?x866 |v7:4|)) (* ?x2704 |v1:10|)) (* 16.0 |v1:10|))))
 (let ((?x1949 (rval2 |v8:3_st|)))
 (let ((?x2350 (* ?x543 ?x1949)))
 (let (($x1123 (<= (+ (+ (+ (* ?x2009 ?x93) ?x2838) (* 14.0 ?x884)) (* 3.0 ?x3116)) ?x375)))
 (let (($x1839 (or $x1123 (<= (+ (+ (+ (* 7.0 |v11:0|) ?x780) (* 20.0 |v3:8|)) ?x2350) 14.0))))
 (let (($x1872 (or (or (or $x1839 (or (<= ?x1417 3.0) (<= ?x606 ?x375))) (<= ?x108 ?x2009)) (<= ?x2067 ?x543))))
 (let ((?x2674 (* ?x665 ?x1949)))
 (let ((?x967 (+ (+ (+ (* 0.0 (rval2 |v4:7_st|)) (* 19.0 ?x3116)) (* 13.0 |v11:0|)) ?x2674)))
 (let ((?x2826 (+ (+ (+ (* ?x2009 ?x295) (* 15.0 ?x1949)) (* 9.0 ?x1949)) (* 14.0 |v5:6|))))
 (let (($x2922 (<= (+ (+ (+ ?x1021 (* 18.0 ?x3116)) (* 3.0 |v7:4|)) (* 16.0 |v11:0|)) ?x866)))
 (let ((?x3095 (* ?x2927 ?x884)))
 (let ((?x2743 (+ (+ (+ (* (- 11.0) ?x295) (* ?x2848 ?x3116)) (* 4.0 (rval2 |v4:7_st|))) ?x3095)))
 (let ((?x2720 (- 7.0)))
 (let ((?x2455 (* ?x2720 |v3:8|)))
 (let (($x300 (<= (+ (+ (+ (* 11.0 (rval2 |v4:7_st|)) (* ?x2537 ?x295)) ?x48) ?x2455) ?x871)))
 (let (($x2533 (<= (+ (+ (+ (* ?x871 |v11:0|) (* ?x375 |v3:8|)) (* ?x866 ?x295)) (rval2 |v4:7_st|)) 11.0)))
 (let (($x1481 (<= (+ (+ (+ ?x1814 (* ?x866 ?x93)) (* 7.0 |v5:6|)) (* 7.0 ?x1949)) 2.0)))
 (let (($x2101 (or (and $x1481 $x2533) (and (and $x300 (<= ?x2743 ?x866)) (and $x2922 (<= ?x2826 15.0))))))
 (let (($x1698 (or (or (and $x2101 (<= ?x967 4.0)) $x1872) (and (or $x343 $x681) (and (or $x217 $x33) (and $x1810 $x479))))))
 (let (($x1423 (not (= |v0:11_st| (RMk1 val!2351)))))
 (let (($x937 (not (= |v2:9_st| (RMk1 val!2350)))))
 (let (($x1277 (not (= |v4:7_st| (RMk1 val!2349)))))
 (let (($x1151 (not (= |v6:5_st| (RMk1 val!2348)))))
 (let (($x1011 (not (= |v8:3_st| (RMk1 val!2347)))))
 (let (($x439 (not (= |v10:1_st| (RMk1 val!2346)))))
 (and $x439 $x1011 $x1151 $x1277 $x937 $x1423 $x1698))))))))))))))))))))))))))))))))))))))))))))))))))))))))))))))))))))))))))))))))))))))))))))))))))))))))))))
 )
 )
 )
 )
 )
 )
 )
 )
 )
 )
 )
 )
(check-sat)
